(declare-fun cmp.i.i_15_43 () (_ BitVec 1))
(declare-fun i25.i.i_15_41 () (_ BitVec 64))
(declare-fun i23.i.i_15_39 () (_ BitVec 64))
(declare-fun i24.i.i_15_40 () (_ BitVec 64))
(declare-fun dst_reg_15_9 () (_ BitVec 64))
(declare-fun dst_reg_15_8 () (_ BitVec 64))
(declare-fun i20.i.i_15_34 () (_ BitVec 64))
(declare-fun and6.i.i.i_15_38 () (_ BitVec 64))
(declare-fun i18.i.i_15_33 () (_ BitVec 64))
(declare-fun and.i.i.i_15_36 () (_ BitVec 64))
(declare-fun dst_reg_15_5 () (_ BitVec 64))
(declare-fun dst_reg_15_4 () (_ BitVec 64))
(declare-fun src_reg1.sroa.22.0.copyload_15_32 () (_ BitVec 64))
(declare-fun src_reg_15_23 () (_ BitVec 64))
(declare-fun src_reg1.sroa.17.0.copyload_15_31 () (_ BitVec 64))
(declare-fun src_reg_15_22 () (_ BitVec 64))
(declare-fun src_reg1.sroa.10.0.copyload_15_30 () (_ BitVec 64))
(declare-fun src_reg_15_19 () (_ BitVec 64))
(declare-fun src_reg_15_27 () (_ BitVec 8))
(declare-fun src_reg_15_26 () (_ BitVec 32))
(declare-fun src_reg_15_25 () (_ BitVec 32))
(declare-fun src_reg_15_24 () (_ BitVec 32))
(declare-fun src_reg_15_21 () (_ BitVec 64))
(declare-fun src_reg_15_20 () (_ BitVec 64))
(declare-fun src_reg_15_18 () (_ BitVec 64))
(declare-fun src_reg_15_17 () (_ BitVec 32))
(declare-fun src_reg_15_16 () (_ BitVec 32))
(declare-fun src_reg_15_15 () (_ BitVec 32))
(declare-fun src_reg_15_14 () (_ BitVec 32))
(declare-fun dst_reg_15_13 () (_ BitVec 8))
(declare-fun dst_reg_15_12 () (_ BitVec 32))
(declare-fun dst_reg_15_11 () (_ BitVec 32))
(declare-fun dst_reg_15_10 () (_ BitVec 32))
(declare-fun dst_reg_15_7 () (_ BitVec 64))
(declare-fun dst_reg_15_6 () (_ BitVec 64))
(declare-fun dst_reg_15_3 () (_ BitVec 32))
(declare-fun dst_reg_15_2 () (_ BitVec 32))
(declare-fun dst_reg_15_1 () (_ BitVec 32))
(declare-fun dst_reg_15_0 () (_ BitVec 32))
(declare-fun cmp.i.i.i.i_15_135 () (_ BitVec 1))
(declare-fun xor.i.i.i_15_133 () (_ BitVec 64))
(declare-fun i.i347.i_15_131 () (_ BitVec 64))
(declare-fun i20.i314.i_15_119 () (_ BitVec 64))
(declare-fun and6.i.i316.i_15_123 () (_ BitVec 64))
(declare-fun i18.i312.i_15_118 () (_ BitVec 64))
(declare-fun and.i.i315.i_15_121 () (_ BitVec 64))
(declare-fun tobool.not.i.i_15_93 () (_ BitVec 1))
(declare-fun cmp18.not.i.not_15_94 () (_ BitVec 1))
(declare-fun cmp24.old.i_15_95 () (_ BitVec 1))
(declare-fun and8.i.i_15_47 () (_ BitVec 64))
(declare-fun and6.i.i_15_45 () (_ BitVec 64))
(declare-fun storemerge.i20.i_15_91 () (_ BitVec 64))
(declare-fun src_reg1.sroa.17.0_15_89 () (_ BitVec 64))
(declare-fun storemerge.i.i_15_77 () (_ BitVec 64))
(declare-fun dst_reg_15_62 () (_ BitVec 8))
(declare-fun dst_reg_15_61 () (_ BitVec 32))
(declare-fun dst_reg_15_60 () (_ BitVec 32))
(declare-fun dst_reg_15_59 () (_ BitVec 32))
(declare-fun dst_reg_15_58 () (_ BitVec 64))
(declare-fun dst_reg_15_57 () (_ BitVec 64))
(declare-fun dst_reg_15_56 () (_ BitVec 64))
(declare-fun dst_reg_15_55 () (_ BitVec 64))
(declare-fun dst_reg_15_54 () (_ BitVec 64))
(declare-fun dst_reg_15_53 () (_ BitVec 64))
(declare-fun dst_reg_15_52 () (_ BitVec 32))
(declare-fun dst_reg_15_51 () (_ BitVec 32))
(declare-fun dst_reg_15_50 () (_ BitVec 32))
(declare-fun dst_reg_15_49 () (_ BitVec 32))
(declare-fun src_reg_15_76 () (_ BitVec 8))
(declare-fun src_reg_15_75 () (_ BitVec 32))
(declare-fun src_reg_15_74 () (_ BitVec 32))
(declare-fun src_reg_15_73 () (_ BitVec 32))
(declare-fun src_reg_15_72 () (_ BitVec 64))
(declare-fun src_reg_15_71 () (_ BitVec 64))
(declare-fun src_reg_15_70 () (_ BitVec 64))
(declare-fun src_reg_15_69 () (_ BitVec 64))
(declare-fun src_reg_15_68 () (_ BitVec 64))
(declare-fun src_reg_15_67 () (_ BitVec 64))
(declare-fun src_reg_15_66 () (_ BitVec 32))
(declare-fun src_reg_15_65 () (_ BitVec 32))
(declare-fun src_reg_15_64 () (_ BitVec 32))
(declare-fun src_reg_15_63 () (_ BitVec 32))
(declare-fun and6.i.i6.i_15_80 () (_ BitVec 64))
(declare-fun and8.i17.i_15_87 () (_ BitVec 64))
(declare-fun cmp.i15.i_15_83 () (_ BitVec 1))
(declare-fun and6.i16.i_15_85 () (_ BitVec 64))
(declare-fun i25.i13.i_15_81 () (_ BitVec 64))
(declare-fun i27.i.i_15_78 () (_ BitVec 64))
(declare-fun retval.0.i.i.i.i_15_182 () (_ BitVec 32))
(declare-fun phi.bo_15_181 () (_ BitVec 32))
(declare-fun neg.i.i.i_15_198 () (_ BitVec 64))
(declare-fun or.i.i.i_15_195 () (_ BitVec 64))
(declare-fun and4.i.i.i_15_199 () (_ BitVec 64))
(declare-fun and.i1.i.i_15_196 () (_ BitVec 64))
(declare-fun retval.sroa.3.0.i.i.i_15_194 () (_ BitVec 64))
(declare-fun retval.sroa.0.0.i.i.i_15_192 () (_ BitVec 64))
(declare-fun sub.i.i.i_15_189 () (_ BitVec 64))
(declare-fun cmp.i.i.i_15_184 () (_ BitVec 1))
(declare-fun and.i.i349.i_15_190 () (_ BitVec 64))
(declare-fun notmask.i.i.i_15_187 () (_ BitVec 64))
(declare-fun sh_prom.i.i.i_15_185 () (_ BitVec 64))
(declare-fun src_reg_15_257 () (_ BitVec 8))
(declare-fun src_reg_15_227 () (_ BitVec 8))
(declare-fun src_reg_15_256 () (_ BitVec 32))
(declare-fun src_reg_15_226 () (_ BitVec 32))
(declare-fun src_reg_15_255 () (_ BitVec 32))
(declare-fun src_reg_15_225 () (_ BitVec 32))
(declare-fun src_reg_15_254 () (_ BitVec 32))
(declare-fun src_reg_15_224 () (_ BitVec 32))
(declare-fun src_reg_15_253 () (_ BitVec 64))
(declare-fun src_reg_15_223 () (_ BitVec 64))
(declare-fun src_reg_15_252 () (_ BitVec 64))
(declare-fun src_reg_15_222 () (_ BitVec 64))
(declare-fun src_reg_15_251 () (_ BitVec 64))
(declare-fun src_reg_15_221 () (_ BitVec 64))
(declare-fun src_reg_15_250 () (_ BitVec 64))
(declare-fun src_reg_15_220 () (_ BitVec 64))
(declare-fun src_reg_15_249 () (_ BitVec 64))
(declare-fun src_reg_15_219 () (_ BitVec 64))
(declare-fun src_reg_15_248 () (_ BitVec 64))
(declare-fun src_reg_15_218 () (_ BitVec 64))
(declare-fun src_reg_15_247 () (_ BitVec 32))
(declare-fun src_reg_15_217 () (_ BitVec 32))
(declare-fun src_reg_15_246 () (_ BitVec 32))
(declare-fun src_reg_15_216 () (_ BitVec 32))
(declare-fun src_reg_15_245 () (_ BitVec 32))
(declare-fun src_reg_15_215 () (_ BitVec 32))
(declare-fun src_reg_15_244 () (_ BitVec 32))
(declare-fun src_reg_15_214 () (_ BitVec 32))
(declare-fun dst_reg_15_243 () (_ BitVec 8))
(declare-fun dst_reg_15_213 () (_ BitVec 8))
(declare-fun dst_reg_15_242 () (_ BitVec 32))
(declare-fun dst_reg_15_212 () (_ BitVec 32))
(declare-fun dst_reg_15_241 () (_ BitVec 32))
(declare-fun dst_reg_15_211 () (_ BitVec 32))
(declare-fun dst_reg_15_240 () (_ BitVec 32))
(declare-fun dst_reg_15_210 () (_ BitVec 32))
(declare-fun dst_reg_15_239 () (_ BitVec 64))
(declare-fun dst_reg_15_209 () (_ BitVec 64))
(declare-fun dst_reg_15_238 () (_ BitVec 64))
(declare-fun dst_reg_15_208 () (_ BitVec 64))
(declare-fun dst_reg_15_237 () (_ BitVec 64))
(declare-fun dst_reg_15_207 () (_ BitVec 64))
(declare-fun dst_reg_15_236 () (_ BitVec 64))
(declare-fun dst_reg_15_206 () (_ BitVec 64))
(declare-fun dst_reg_15_235 () (_ BitVec 64))
(declare-fun dst_reg_15_205 () (_ BitVec 64))
(declare-fun dst_reg_15_234 () (_ BitVec 64))
(declare-fun dst_reg_15_204 () (_ BitVec 64))
(declare-fun dst_reg_15_233 () (_ BitVec 32))
(declare-fun dst_reg_15_203 () (_ BitVec 32))
(declare-fun dst_reg_15_232 () (_ BitVec 32))
(declare-fun dst_reg_15_202 () (_ BitVec 32))
(declare-fun dst_reg_15_231 () (_ BitVec 32))
(declare-fun dst_reg_15_201 () (_ BitVec 32))
(declare-fun dst_reg_15_230 () (_ BitVec 32))
(declare-fun dst_reg_15_200 () (_ BitVec 32))
(declare-fun conv.i.i.i.i_15_179 () (_ BitVec 32))
(declare-fun i.i.i.i.i.i.neg_15_178 () (_ BitVec 32))
(declare-fun num.4.i.i.i.i.i_15_175 () (_ BitVec 32))
(declare-fun word.addr.4.lobit.i.i.i.i.i.neg_15_177 () (_ BitVec 64))
(declare-fun word.addr.4.i.i.i.i.i_15_174 () (_ BitVec 64))
(declare-fun num.3.i.i.i.i.i_15_167 () (_ BitVec 32))
(declare-fun sub22.i.i.i.i.i_15_171 () (_ BitVec 32))
(declare-fun tobool20.not.i.i.i.i.i_15_169 () (_ BitVec 1))
(declare-fun word.addr.3.i.i.i.i.i_15_166 () (_ BitVec 64))
(declare-fun shl23.i.i.i.i.i_15_173 () (_ BitVec 64))
(declare-fun num.2.i.i.i.i.i_15_159 () (_ BitVec 32))
(declare-fun sub16.i.i.i.i.i_15_163 () (_ BitVec 32))
(declare-fun tobool14.not.i.i.i.i.i_15_161 () (_ BitVec 1))
(declare-fun word.addr.2.i.i.i.i.i_15_158 () (_ BitVec 64))
(declare-fun shl17.i.i.i.i.i_15_165 () (_ BitVec 64))
(declare-fun num.1.i.i.i.i.i_15_151 () (_ BitVec 32))
(declare-fun sub10.i.i.i.i.i_15_155 () (_ BitVec 32))
(declare-fun tobool8.not.i.i.i.i.i_15_153 () (_ BitVec 1))
(declare-fun word.addr.1.i.i.i.i.i_15_150 () (_ BitVec 64))
(declare-fun shl11.i.i.i.i.i_15_157 () (_ BitVec 64))
(declare-fun spec.select17.i.i.i.i.i_15_143 () (_ BitVec 32))
(declare-fun sub4.i.i.i.i.i_15_147 () (_ BitVec 32))
(declare-fun tobool2.not.i.i.i.i.i_15_145 () (_ BitVec 1))
(declare-fun spec.select.i.i.i.i.i_15_140 () (_ BitVec 64))
(declare-fun shl5.i.i.i.i.i_15_149 () (_ BitVec 64))
(declare-fun tobool.not.i.i.i.i.i_15_137 () (_ BitVec 1))
(declare-fun shl.i.i.i.i.i_15_139 () (_ BitVec 64))
(assert (let ((a!1 (and (= tobool.not.i.i_15_93 #b0)
                (or (= cmp.i.i_15_43 #b0) (= cmp.i.i_15_43 #b1))))
      (a!2 (and (= tobool.not.i.i_15_93 #b1)
                (or (= cmp.i.i_15_43 #b0) (= cmp.i.i_15_43 #b1))))
      (a!8 (and (= src_reg_15_63 src_reg_15_214)
                (= src_reg_15_64 src_reg_15_215)
                (= src_reg_15_65 src_reg_15_216)
                (= src_reg_15_66 src_reg_15_217)
                (= src_reg_15_67 src_reg_15_218)
                (= src_reg_15_68 src_reg_15_219)
                (= src_reg_15_69 src_reg_15_220)
                (= src_reg_15_70 src_reg_15_221)
                (= src_reg_15_71 src_reg_15_222)
                (= src_reg_15_72 src_reg_15_223)
                (= src_reg_15_73 src_reg_15_224)
                (= src_reg_15_74 src_reg_15_225)
                (= src_reg_15_75 src_reg_15_226)
                (= src_reg_15_76 src_reg_15_227)
                (= #x00000001 dst_reg_15_200)
                (= dst_reg_15_50 dst_reg_15_201)
                (= dst_reg_15_51 dst_reg_15_202)
                (= dst_reg_15_52 dst_reg_15_203)
                (= #x0000000000000000 dst_reg_15_204)
                (= #xffffffffffffffff dst_reg_15_205)
                (= #x8000000000000000 dst_reg_15_206)
                (= #x7fffffffffffffff dst_reg_15_207)
                (= #x0000000000000000 dst_reg_15_208)
                (= #xffffffffffffffff dst_reg_15_209)
                (= #x00000000 dst_reg_15_210)
                (= dst_reg_15_60 dst_reg_15_211)
                (= dst_reg_15_61 dst_reg_15_212)
                (= #x01 dst_reg_15_213)))
      (a!14 (and (= dst_reg_15_57 i27.i.i_15_78)
                 (= and6.i.i6.i_15_80
                    (bvand src_reg1.sroa.10.0.copyload_15_30 #x00000000ffffffff))
                 (= i25.i13.i_15_81
                    (bvxor src_reg1.sroa.22.0.copyload_15_32
                           src_reg1.sroa.17.0.copyload_15_31))
                 (ite (bvult i25.i13.i_15_81 #x0000000100000000)
                      (= cmp.i15.i_15_83 #b1)
                      (= cmp.i15.i_15_83 #b0))
                 (= and6.i16.i_15_85
                    (bvand src_reg1.sroa.17.0.copyload_15_31 #x00000000ffffffff))
                 (= and8.i17.i_15_87
                    (bvand src_reg1.sroa.22.0.copyload_15_32 #x00000000ffffffff))
                 (ite (= cmp.i15.i_15_83 #b1)
                      (= src_reg1.sroa.17.0_15_89 and6.i16.i_15_85)
                      (= src_reg1.sroa.17.0_15_89 #x0000000000000000))
                 (ite (= cmp.i15.i_15_83 #b1)
                      (= storemerge.i20.i_15_91 and8.i17.i_15_87)
                      (= storemerge.i20.i_15_91 #x00000000ffffffff))
                 (ite (= and6.i.i6.i_15_80 #x0000000000000000)
                      (= tobool.not.i.i_15_93 #b1)
                      (= tobool.not.i.i_15_93 #b0))
                 (=> (= cmp.i.i_15_43 #b1)
                     (and (= #x00000001 src_reg_15_63)
                          (= src_reg_15_15 src_reg_15_64)
                          (= src_reg_15_16 src_reg_15_65)
                          (= src_reg_15_17 src_reg_15_66)
                          (= src_reg_15_18 src_reg_15_67)
                          (= src_reg_15_19 src_reg_15_68)
                          (= src_reg_15_20 src_reg_15_69)
                          (= src_reg_15_21 src_reg_15_70)
                          (= src_reg_15_22 src_reg_15_71)
                          (= src_reg_15_23 src_reg_15_72)
                          (= src_reg_15_24 src_reg_15_73)
                          (= src_reg_15_25 src_reg_15_74)
                          (= src_reg_15_26 src_reg_15_75)
                          (= src_reg_15_27 src_reg_15_76)
                          (= #x00000001 dst_reg_15_49)
                          (= dst_reg_15_1 dst_reg_15_50)
                          (= dst_reg_15_2 dst_reg_15_51)
                          (= dst_reg_15_3 dst_reg_15_52)
                          (= and.i.i.i_15_36 dst_reg_15_53)
                          (= and6.i.i.i_15_38 dst_reg_15_54)
                          (= dst_reg_15_6 dst_reg_15_55)
                          (= dst_reg_15_7 dst_reg_15_56)
                          (= and6.i.i_15_45 dst_reg_15_57)
                          (= dst_reg_15_9 dst_reg_15_58)
                          (= dst_reg_15_10 dst_reg_15_59)
                          (= dst_reg_15_11 dst_reg_15_60)
                          (= dst_reg_15_12 dst_reg_15_61)
                          (= dst_reg_15_13 dst_reg_15_62)))
                 (=> (= cmp.i.i_15_43 #b0)
                     (and (= #x00000001 src_reg_15_63)
                          (= src_reg_15_15 src_reg_15_64)
                          (= src_reg_15_16 src_reg_15_65)
                          (= src_reg_15_17 src_reg_15_66)
                          (= src_reg_15_18 src_reg_15_67)
                          (= src_reg_15_19 src_reg_15_68)
                          (= src_reg_15_20 src_reg_15_69)
                          (= src_reg_15_21 src_reg_15_70)
                          (= src_reg_15_22 src_reg_15_71)
                          (= src_reg_15_23 src_reg_15_72)
                          (= src_reg_15_24 src_reg_15_73)
                          (= src_reg_15_25 src_reg_15_74)
                          (= src_reg_15_26 src_reg_15_75)
                          (= src_reg_15_27 src_reg_15_76)
                          (= #x00000001 dst_reg_15_49)
                          (= dst_reg_15_1 dst_reg_15_50)
                          (= dst_reg_15_2 dst_reg_15_51)
                          (= dst_reg_15_3 dst_reg_15_52)
                          (= and.i.i.i_15_36 dst_reg_15_53)
                          (= and6.i.i.i_15_38 dst_reg_15_54)
                          (= dst_reg_15_6 dst_reg_15_55)
                          (= dst_reg_15_7 dst_reg_15_56)
                          (= #x0000000000000000 dst_reg_15_57)
                          (= dst_reg_15_9 dst_reg_15_58)
                          (= dst_reg_15_10 dst_reg_15_59)
                          (= dst_reg_15_11 dst_reg_15_60)
                          (= dst_reg_15_12 dst_reg_15_61)
                          (= dst_reg_15_13 dst_reg_15_62)))
                 (=> (= cmp.i.i_15_43 #b0)
                     (= storemerge.i.i_15_77 #x00000000ffffffff))
                 (=> (= cmp.i.i_15_43 #b1)
                     (= storemerge.i.i_15_77 and8.i.i_15_47))))
      (a!16 (=> (= cmp.i.i_15_43 #b1)
                (and (= and6.i.i_15_45 (bvand i23.i.i_15_39 #x00000000ffffffff))
                     (= and8.i.i_15_47 (bvand i24.i.i_15_40 #x00000000ffffffff))))))
(let ((a!3 (or (and (= cmp24.old.i_15_95 #b0) a!1)
               (and (= cmp18.not.i.not_15_94 #b1) a!2)))
      (a!5 (=> a!1
               (and (ite (bvugt src_reg1.sroa.17.0_15_89 storemerge.i20.i_15_91)
                         (= cmp24.old.i_15_95 #b1)
                         (= cmp24.old.i_15_95 #b0)))))
      (a!7 (or (and (= cmp24.old.i_15_95 #b1) a!1)
               (and (= cmp18.not.i.not_15_94 #b0) a!2)))
      (a!15 (=> a!2
                (and (ite (= src_reg1.sroa.17.0_15_89 storemerge.i20.i_15_91)
                          (= cmp18.not.i.not_15_94 #b1)
                          (= cmp18.not.i.not_15_94 #b0))))))
(let ((a!4 (=> (and (= cmp.i.i.i.i_15_135 #b0)
                    (and (= tobool.not.i.i_15_93 #b1) a!3))
               (and (ite (bvult xor.i.i.i_15_133 #x0000000100000000)
                         (= tobool.not.i.i.i.i.i_15_137 #b1)
                         (= tobool.not.i.i.i.i.i_15_137 #b0))
                    (= shl.i.i.i.i.i_15_139
                       (bvshl xor.i.i.i_15_133 #x0000000000000020))
                    (ite (= tobool.not.i.i.i.i.i_15_137 #b1)
                         (= spec.select.i.i.i.i.i_15_140 shl.i.i.i.i.i_15_139)
                         (= spec.select.i.i.i.i.i_15_140 xor.i.i.i_15_133))
                    (ite (= tobool.not.i.i.i.i.i_15_137 #b1)
                         (= spec.select17.i.i.i.i.i_15_143 #x0000001f)
                         (= spec.select17.i.i.i.i.i_15_143 #x0000003f))
                    (ite (bvult spec.select.i.i.i.i.i_15_140 #x0001000000000000)
                         (= tobool2.not.i.i.i.i.i_15_145 #b1)
                         (= tobool2.not.i.i.i.i.i_15_145 #b0))
                    (= sub4.i.i.i.i.i_15_147
                       (bvadd spec.select17.i.i.i.i.i_15_143 #xfffffff0))
                    (= shl5.i.i.i.i.i_15_149
                       (bvshl spec.select.i.i.i.i.i_15_140 #x0000000000000010))
                    (ite (= tobool2.not.i.i.i.i.i_15_145 #b1)
                         (= word.addr.1.i.i.i.i.i_15_150 shl5.i.i.i.i.i_15_149)
                         (= word.addr.1.i.i.i.i.i_15_150
                            spec.select.i.i.i.i.i_15_140))
                    (ite (= tobool2.not.i.i.i.i.i_15_145 #b1)
                         (= num.1.i.i.i.i.i_15_151 sub4.i.i.i.i.i_15_147)
                         (= num.1.i.i.i.i.i_15_151
                            spec.select17.i.i.i.i.i_15_143))
                    (ite (bvult word.addr.1.i.i.i.i.i_15_150 #x0100000000000000)
                         (= tobool8.not.i.i.i.i.i_15_153 #b1)
                         (= tobool8.not.i.i.i.i.i_15_153 #b0))
                    (= sub10.i.i.i.i.i_15_155
                       (bvadd num.1.i.i.i.i.i_15_151 #xfffffff8))
                    (= shl11.i.i.i.i.i_15_157
                       (bvshl word.addr.1.i.i.i.i.i_15_150 #x0000000000000008))
                    (ite (= tobool8.not.i.i.i.i.i_15_153 #b1)
                         (= word.addr.2.i.i.i.i.i_15_158 shl11.i.i.i.i.i_15_157)
                         (= word.addr.2.i.i.i.i.i_15_158
                            word.addr.1.i.i.i.i.i_15_150))
                    (ite (= tobool8.not.i.i.i.i.i_15_153 #b1)
                         (= num.2.i.i.i.i.i_15_159 sub10.i.i.i.i.i_15_155)
                         (= num.2.i.i.i.i.i_15_159 num.1.i.i.i.i.i_15_151))
                    (ite (bvult word.addr.2.i.i.i.i.i_15_158 #x1000000000000000)
                         (= tobool14.not.i.i.i.i.i_15_161 #b1)
                         (= tobool14.not.i.i.i.i.i_15_161 #b0))
                    (= sub16.i.i.i.i.i_15_163
                       (bvadd num.2.i.i.i.i.i_15_159 #xfffffffc))
                    (= shl17.i.i.i.i.i_15_165
                       (bvshl word.addr.2.i.i.i.i.i_15_158 #x0000000000000004))
                    (ite (= tobool14.not.i.i.i.i.i_15_161 #b1)
                         (= word.addr.3.i.i.i.i.i_15_166 shl17.i.i.i.i.i_15_165)
                         (= word.addr.3.i.i.i.i.i_15_166
                            word.addr.2.i.i.i.i.i_15_158))
                    (ite (= tobool14.not.i.i.i.i.i_15_161 #b1)
                         (= num.3.i.i.i.i.i_15_167 sub16.i.i.i.i.i_15_163)
                         (= num.3.i.i.i.i.i_15_167 num.2.i.i.i.i.i_15_159))
                    (ite (bvult word.addr.3.i.i.i.i.i_15_166 #x4000000000000000)
                         (= tobool20.not.i.i.i.i.i_15_169 #b1)
                         (= tobool20.not.i.i.i.i.i_15_169 #b0))
                    (= sub22.i.i.i.i.i_15_171
                       (bvadd num.3.i.i.i.i.i_15_167 #x000000fe))
                    (= shl23.i.i.i.i.i_15_173
                       (bvshl word.addr.3.i.i.i.i.i_15_166 #x0000000000000002))
                    (ite (= tobool20.not.i.i.i.i.i_15_169 #b1)
                         (= word.addr.4.i.i.i.i.i_15_174 shl23.i.i.i.i.i_15_173)
                         (= word.addr.4.i.i.i.i.i_15_174
                            word.addr.3.i.i.i.i.i_15_166))
                    (ite (= tobool20.not.i.i.i.i.i_15_169 #b1)
                         (= num.4.i.i.i.i.i_15_175 sub22.i.i.i.i.i_15_171)
                         (= num.4.i.i.i.i.i_15_175 num.3.i.i.i.i.i_15_167))
                    (= word.addr.4.lobit.i.i.i.i.i.neg_15_177
                       (bvlshr word.addr.4.i.i.i.i.i_15_174 #x000000000000003f))
                    (= i.i.i.i.i.i.neg_15_178
                       ((_ extract 31 0) word.addr.4.lobit.i.i.i.i.i.neg_15_177))
                    (= conv.i.i.i.i_15_179
                       (bvadd num.4.i.i.i.i.i_15_175 i.i.i.i.i.i.neg_15_178))
                    (= phi.bo_15_181 (bvand conv.i.i.i.i_15_179 #x000000ff)))))
      (a!6 (or (and (= cmp.i.i.i.i_15_135 #b0)
                    (and (= tobool.not.i.i_15_93 #b1) a!3))
               (and (= cmp.i.i.i.i_15_135 #b1)
                    (and (= tobool.not.i.i_15_93 #b1) a!3))))
      (a!11 (=> (and (= cmp.i.i.i.i_15_135 #b0)
                     (and (= tobool.not.i.i_15_93 #b1) a!3))
                (= retval.0.i.i.i.i_15_182 phi.bo_15_181)))
      (a!12 (=> (and (= cmp.i.i.i.i_15_135 #b1)
                     (and (= tobool.not.i.i_15_93 #b1) a!3))
                (= retval.0.i.i.i.i_15_182 #x00000000)))
      (a!17 (=> (and (= tobool.not.i.i_15_93 #b1) a!3)
                (and (= #x0000000000000000 i18.i312.i_15_118)
                     (= #xffffffffffffffff i20.i314.i_15_119)
                     (= and.i.i315.i_15_121
                        (bvand i18.i312.i_15_118 #x00000000ffffffff))
                     (= and6.i.i316.i_15_123
                        (bvand i20.i314.i_15_119 #x00000000ffffffff))
                     (= #x0000000000000000 i.i347.i_15_131)
                     (= xor.i.i.i_15_133
                        (bvxor i.i347.i_15_131 #x00000000ffffffff))
                     (ite (= xor.i.i.i_15_133 #x0000000000000000)
                          (= cmp.i.i.i.i_15_135 #b1)
                          (= cmp.i.i.i.i_15_135 #b0))))))
(let ((a!9 (and (=> a!6
                    (and (= src_reg_15_63 src_reg_15_214)
                         (= src_reg_15_64 src_reg_15_215)
                         (= src_reg_15_65 src_reg_15_216)
                         (= src_reg_15_66 src_reg_15_217)
                         (= src_reg_15_67 src_reg_15_218)
                         (= src_reg_15_68 src_reg_15_219)
                         (= src_reg_15_69 src_reg_15_220)
                         (= src_reg_15_70 src_reg_15_221)
                         (= src_reg_15_71 src_reg_15_222)
                         (= src_reg_15_72 src_reg_15_223)
                         (= src_reg_15_73 src_reg_15_224)
                         (= src_reg_15_74 src_reg_15_225)
                         (= src_reg_15_75 src_reg_15_226)
                         (= src_reg_15_76 src_reg_15_227)
                         (= #x00000001 dst_reg_15_200)
                         (= dst_reg_15_50 dst_reg_15_201)
                         (= dst_reg_15_51 dst_reg_15_202)
                         (= dst_reg_15_52 dst_reg_15_203)
                         (= and4.i.i.i_15_199 dst_reg_15_204)
                         (= and.i1.i.i_15_196 dst_reg_15_205)
                         (= #x0000000000000000 dst_reg_15_206)
                         (= #x00000000ffffffff dst_reg_15_207)
                         (= #x0000000000000000 dst_reg_15_208)
                         (= #x00000000ffffffff dst_reg_15_209)
                         (= dst_reg_15_59 dst_reg_15_210)
                         (= dst_reg_15_60 dst_reg_15_211)
                         (= dst_reg_15_61 dst_reg_15_212)
                         (= dst_reg_15_62 dst_reg_15_213)))
                (=> (and (= tobool.not.i.i_15_93 #b0) a!3) a!8)
                (=> a!7 a!8)
                (= dst_reg_15_200 dst_reg_15_230)
                (= dst_reg_15_201 dst_reg_15_231)
                (= dst_reg_15_202 dst_reg_15_232)
                (= dst_reg_15_203 dst_reg_15_233)
                (= dst_reg_15_204 dst_reg_15_234)
                (= dst_reg_15_205 dst_reg_15_235)
                (= dst_reg_15_206 dst_reg_15_236)
                (= dst_reg_15_207 dst_reg_15_237)
                (= dst_reg_15_208 dst_reg_15_238)
                (= dst_reg_15_209 dst_reg_15_239)
                (= dst_reg_15_210 dst_reg_15_240)
                (= dst_reg_15_211 dst_reg_15_241)
                (= dst_reg_15_212 dst_reg_15_242)
                (= dst_reg_15_213 dst_reg_15_243)
                (= src_reg_15_214 src_reg_15_244)
                (= src_reg_15_215 src_reg_15_245)
                (= src_reg_15_216 src_reg_15_246)
                (= src_reg_15_217 src_reg_15_247)
                (= src_reg_15_218 src_reg_15_248)
                (= src_reg_15_219 src_reg_15_249)
                (= src_reg_15_220 src_reg_15_250)
                (= src_reg_15_221 src_reg_15_251)
                (= src_reg_15_222 src_reg_15_252)
                (= src_reg_15_223 src_reg_15_253)
                (= src_reg_15_224 src_reg_15_254)
                (= src_reg_15_225 src_reg_15_255)
                (= src_reg_15_226 src_reg_15_256)
                (= src_reg_15_227 src_reg_15_257)))
      (a!13 (=> a!6
                (and (ite (bvugt retval.0.i.i.i.i_15_182 #x0000003f)
                          (= cmp.i.i.i_15_184 #b1)
                          (= cmp.i.i.i_15_184 #b0))
                     (= sh_prom.i.i.i_15_185
                        ((_ zero_extend 32) retval.0.i.i.i.i_15_182))
                     (= notmask.i.i.i_15_187
                        (bvshl #xffffffffffffffff sh_prom.i.i.i_15_185))
                     (= sub.i.i.i_15_189
                        (bvxor notmask.i.i.i_15_187 #xffffffffffffffff))
                     (= and.i.i349.i_15_190
                        (bvand notmask.i.i.i_15_187 i.i347.i_15_131))
                     (ite (= cmp.i.i.i_15_184 #b1)
                          (= retval.sroa.0.0.i.i.i_15_192 #x0000000000000000)
                          (= retval.sroa.0.0.i.i.i_15_192 and.i.i349.i_15_190))
                     (ite (= cmp.i.i.i_15_184 #b1)
                          (= retval.sroa.3.0.i.i.i_15_194 #x00000000ffffffff)
                          (= retval.sroa.3.0.i.i.i_15_194 sub.i.i.i_15_189))
                     (= or.i.i.i_15_195
                        (bvor retval.sroa.0.0.i.i.i_15_192 and.i.i315.i_15_121))
                     (= and.i1.i.i_15_196
                        (bvand retval.sroa.3.0.i.i.i_15_194
                               and6.i.i316.i_15_123))
                     (= neg.i.i.i_15_198
                        (bvxor and.i1.i.i_15_196 #xffffffffffffffff))
                     (= and4.i.i.i_15_199
                        (bvand or.i.i.i_15_195 neg.i.i.i_15_198))
                     a!11
                     a!12))))
(let ((a!10 (=> (or a!6 (and (= tobool.not.i.i_15_93 #b0) a!3) a!7) a!9)))
  (and a!4
       a!5
       a!10
       a!13
       (=> (or (= cmp.i.i_15_43 #b0) (= cmp.i.i_15_43 #b1)) a!14)
       a!15
       a!16
       a!17
       (= dst_reg_15_0 dst_reg_15_0)
       (= dst_reg_15_1 dst_reg_15_1)
       (= dst_reg_15_2 dst_reg_15_2)
       (= dst_reg_15_3 dst_reg_15_3)
       (= dst_reg_15_4 dst_reg_15_4)
       (= dst_reg_15_5 dst_reg_15_5)
       (= dst_reg_15_6 dst_reg_15_6)
       (= dst_reg_15_7 dst_reg_15_7)
       (= dst_reg_15_8 dst_reg_15_8)
       (= dst_reg_15_9 dst_reg_15_9)
       (= dst_reg_15_10 dst_reg_15_10)
       (= dst_reg_15_11 dst_reg_15_11)
       (= dst_reg_15_12 dst_reg_15_12)
       (= dst_reg_15_13 dst_reg_15_13)
       (= src_reg_15_14 src_reg_15_14)
       (= src_reg_15_15 src_reg_15_15)
       (= src_reg_15_16 src_reg_15_16)
       (= src_reg_15_17 src_reg_15_17)
       (= src_reg_15_18 src_reg_15_18)
       (= src_reg_15_19 src_reg_15_19)
       (= src_reg_15_20 src_reg_15_20)
       (= src_reg_15_21 src_reg_15_21)
       (= src_reg_15_22 src_reg_15_22)
       (= src_reg_15_23 src_reg_15_23)
       (= src_reg_15_24 src_reg_15_24)
       (= src_reg_15_25 src_reg_15_25)
       (= src_reg_15_26 src_reg_15_26)
       (= src_reg_15_27 src_reg_15_27)
       (= src_reg_15_19 src_reg1.sroa.10.0.copyload_15_30)
       (= src_reg_15_22 src_reg1.sroa.17.0.copyload_15_31)
       (= src_reg_15_23 src_reg1.sroa.22.0.copyload_15_32)
       (= dst_reg_15_4 i18.i.i_15_33)
       (= dst_reg_15_5 i20.i.i_15_34)
       (= and.i.i.i_15_36 (bvand i18.i.i_15_33 #x00000000ffffffff))
       (= and6.i.i.i_15_38 (bvand i20.i.i_15_34 #x00000000ffffffff))
       (= dst_reg_15_8 i23.i.i_15_39)
       (= dst_reg_15_9 i24.i.i_15_40)
       (= i25.i.i_15_41 (bvxor i24.i.i_15_40 i23.i.i_15_39))
       (ite (bvult i25.i.i_15_41 #x0000000100000000)
            (= cmp.i.i_15_43 #b1)
            (= cmp.i.i_15_43 #b0)))))))))

;{"dst_reg":["dst_reg_15_0",[""],"dst_reg_15_1","dst_reg_15_2","dst_reg_15_3",["dst_reg_15_4","dst_reg_15_5"],"dst_reg_15_6","dst_reg_15_7","dst_reg_15_8","dst_reg_15_9","","","dst_reg_15_10","dst_reg_15_11","dst_reg_15_12"],"src_reg":["src_reg_15_14",[""],"src_reg_15_15","src_reg_15_16","src_reg_15_17",["src_reg_15_18","src_reg_15_19"],"src_reg_15_20","src_reg_15_21","src_reg_15_22","src_reg_15_23","","","src_reg_15_24","src_reg_15_25","src_reg_15_26"]}
;{"dst_reg":["dst_reg_15_230",[""],"dst_reg_15_231","dst_reg_15_232","dst_reg_15_233",["dst_reg_15_234","dst_reg_15_235"],"dst_reg_15_236","dst_reg_15_237","dst_reg_15_238","dst_reg_15_239","","","dst_reg_15_240","dst_reg_15_241","dst_reg_15_242"],"src_reg":["src_reg_15_244",[""],"src_reg_15_245","src_reg_15_246","src_reg_15_247",["src_reg_15_248","src_reg_15_249"],"src_reg_15_250","src_reg_15_251","src_reg_15_252","src_reg_15_253","","","src_reg_15_254","src_reg_15_255","src_reg_15_256"]}
